JulietBench/Juliet_Based_Patch_Bench/FFmpeg/CWE-190-Integer-Overflow-or-Wraparound/CVE_2016_6164_8a3221cc67a516dfc1700bdae3566ec52c7ee823/ResultcveSnippet_patch1NEQ.smt2
; benchmark generated from python API
(set-info :status unknown)
(declare-fun rdi () (_ BitVec 64))
(declare-fun R () (_ BitVec 32))
(assert
 (let ((?x6 ((_ extract 31 0) rdi)))
 (let (($x57 (= R ?x6)))
 (let (($x11 (bvule ?x6 (_ bv1073741823 32))))
 (let (($x60 (and $x11 $x57)))
 (let (($x58 (= (_ bv0 32) R)))
 (let (($x46 (bvugt ?x6 (_ bv1073741823 32))))
 (let (($x59 (and $x46 $x58)))
 (let (($x61 (or $x59 $x60)))
 (let (($x64 (not $x61)))
 (let (($x63 (and (distinct R ?x6) true)))
 (let (($x65 (and $x63 $x64)))
 (let (($x62 (and $x57 $x61)))
 (let (($x66 (or $x62 $x65)))
 (not $x66)))))))))))))))
(check-sat)
